c uprop, v00.0, 
c reading from data/prog341.c.cnf
c done reading: 0.002314
p cnf 116 385
-64 -67 0
-67 -69 0
64 67 69 0
64 69 -75 0
-64 -69 -75 0
-64 69 75 0
64 -69 75 0
67 -78 0
-78 -80 0
-67 78 80 0
-67 80 -85 0
67 -80 -85 0
67 80 85 0
-67 -80 85 0
78 -90 0
-78 90 0
-78 -95 0
78 95 0
90 -98 0
-90 98 0
-65 -90 0
65 90 0
-71 98 0
71 -98 0
-81 -98 0
81 98 0
-61 71 0
61 -71 0
-59 -71 0
59 71 0
-57 61 0
57 -61 0
-55 -61 0
55 61 0
-53 69 0
-53 64 0
53 -64 -69 0
-51 -64 -69 0
-51 64 69 0
51 64 -69 0
51 -64 69 0
49 -69 -80 0
49 -53 -80 0
49 -53 -69 0
-49 69 80 0
-49 53 80 0
-49 53 69 0
-47 -49 80 0
-47 -49 69 0
-47 -49 53 0
47 49 -80 0
47 49 -69 0
47 49 -53 0
47 -53 -69 -80 0
-47 53 69 80 0
45 -49 -80 0
-45 80 0
-45 49 0
-45 49 80 0
-43 -45 0
-43 -45 80 0
-43 -45 49 0
43 45 -80 0
43 45 -49 0
-43 49 80 0
40 -45 0
-40 45 0
47 -74 0
64 -74 0
-47 -64 74 0
-47 -64 -77 0
47 64 -77 0
-47 64 77 0
47 -64 77 0
-43 -69 84 0
-43 -74 84 0
-69 -74 84 0
43 69 -84 0
43 74 -84 0
69 74 -84 0
43 -84 -88 0
69 -84 -88 0
74 -84 -88 0
-43 84 88 0
-69 84 88 0
-74 84 88 0
-43 -69 -74 88 0
43 69 74 -88 0
-40 -80 93 0
-40 -84 93 0
-80 -84 93 0
40 80 -93 0
40 84 -93 0
80 84 -93 0
40 -93 -101 0
80 -93 -101 0
84 -93 -101 0
-40 93 101 0
-80 93 101 0
-84 93 101 0
-40 -80 -84 101 0
40 80 84 -101 0
-93 103 0
93 -103 0
88 -104 0
64 -104 0
-64 -88 104 0
-64 -88 -106 0
64 88 -106 0
64 -88 106 0
-64 88 106 0
-69 -101 107 0
-101 -104 107 0
-69 -104 107 0
69 101 -107 0
101 104 -107 0
69 104 -107 0
101 -107 -109 0
69 -107 -109 0
104 -107 -109 0
-101 107 109 0
-69 107 109 0
-104 107 109 0
-69 -101 -104 109 0
69 101 104 -109 0
-80 -103 0
-103 -107 0
-80 -107 0
-103 111 0
-80 111 0
-107 111 0
-80 -103 -107 111 0
80 103 107 -111 0
-64 -86 0
-51 -86 0
51 64 86 0
51 64 -91 0
-51 -64 -91 0
51 -64 91 0
-51 64 91 0
86 -96 0
-77 -96 0
77 -86 96 0
77 -86 -99 0
-77 86 -99 0
77 86 99 0
-77 -86 99 0
-66 96 0
-66 -106 0
66 -96 106 0
-72 -96 106 0
-72 96 -106 0
72 96 106 0
72 -96 -106 0
66 -82 0
-82 -109 0
-66 82 109 0
-62 -66 109 0
-62 66 -109 0
62 66 109 0
62 -66 -109 0
-60 82 0
-60 -111 0
60 -82 111 0
-58 -82 111 0
-58 82 -111 0
58 82 111 0
58 -82 -111 0
-56 60 0
56 -60 0
-54 -60 0
54 60 0
-52 56 0
52 -56 0
-50 -56 0
50 56 0
-48 52 0
48 -52 0
-46 -52 0
46 52 0
-44 48 0
44 -48 0
-48 -112 0
48 112 0
-41 44 0
41 -44 0
-44 -113 0
44 113 0
41 -114 0
-41 114 0
-41 -115 0
41 115 0
-38 -116 0
38 116 0
-37 116 0
37 -116 0
-36 38 0
-35 -36 0
35 36 -38 0
-34 35 -38 0
-34 -35 38 0
34 35 38 0
34 -35 -38 0
-33 36 0
33 -36 0
-32 -36 0
32 36 0
-31 33 0
31 -33 0
-30 -33 0
30 33 0
-29 31 0
29 -31 0
-28 -31 0
28 31 0
-27 29 0
27 -29 0
-29 -63 0
29 63 0
27 -68 0
-27 68 0
-27 -79 0
27 79 0
-26 35 0
26 -35 0
25 -116 0
-25 116 0
24 -35 0
-24 35 0
-23 25 0
23 -25 0
22 -24 -116 0
-22 24 116 0
-22 24 0
-22 116 0
-21 -22 24 0
-21 -22 116 0
-21 -22 0
21 22 -24 0
21 22 -116 0
-21 24 116 0
20 -22 -35 0
-20 35 0
-20 22 0
-20 22 35 0
-19 -20 0
-19 -20 35 0
-19 -20 22 0
19 20 -35 0
19 20 -22 0
-19 22 35 0
18 -20 0
-18 20 0
21 -89 0
-21 89 0
-19 94 -116 0
19 -94 116 0
19 -94 0
-94 116 0
19 -94 -97 0
-94 -97 116 0
-94 -97 0
-19 94 97 0
94 97 -116 0
19 -97 116 0
-18 -35 0
-18 -94 0
-35 -94 0
-18 70 0
-35 70 0
70 -94 0
-18 -35 70 -94 0
18 35 -70 94 0
-42 -116 0
42 116 0
-17 116 0
17 -116 0
-39 42 0
-26 -39 0
26 39 -42 0
-16 26 -42 0
-16 -26 42 0
16 26 42 0
16 -26 -42 0
-15 39 0
-15 -23 0
15 23 -39 0
-14 23 -39 0
-14 -23 39 0
14 23 39 0
14 -23 -39 0
-13 15 0
-13 -89 0
13 -15 89 0
-12 -15 89 0
-12 15 -89 0
12 15 89 0
12 -15 -89 0
-11 13 0
-11 -97 0
11 -13 97 0
-10 -13 97 0
-10 13 -97 0
10 13 97 0
10 -13 -97 0
-9 11 0
-9 -70 0
9 -11 70 0
-11 70 -73 0
11 -70 -73 0
11 70 73 0
-11 -70 73 0
9 -76 0
-9 76 0
-9 -83 0
9 83 0
76 -87 0
-76 87 0
-76 -92 0
76 92 0
87 -100 0
-87 100 0
-8 -87 0
8 87 0
100 -102 0
-100 102 0
-7 -100 0
7 100 0
-6 102 0
6 -102 0
-5 -102 0
5 102 0
-4 6 0
4 -6 0
-3 -6 0
3 6 0
-2 64 0
-2 116 0
2 -64 -116 0
-64 -116 0
64 116 0
1 -26 -51 0
1 -2 -51 0
1 -2 -26 0
-1 26 51 0
-1 2 51 0
-1 2 26 0
1 -51 0
1 -26 0
1 -2 0
-2 -26 -51 0
-23 -77 105 0
-1 -77 105 0
-1 -23 105 0
23 77 -105 0
1 77 -105 0
1 23 -105 0
-77 105 0
-23 105 0
-1 105 0
-1 -23 -77 0
-89 -106 108 0
-105 -106 108 0
-89 -105 108 0
89 106 -108 0
105 106 -108 0
89 105 -108 0
106 -108 0
89 -108 0
105 -108 0
89 105 106 0
-97 -109 110 0
-108 -109 110 0
-97 -108 110 0
97 109 -110 0
108 109 -110 0
97 108 -110 0
-109 110 0
-97 110 0
-108 110 0
-97 -108 -109 0
-70 -111 0
-110 -111 0
-70 -110 0
70 110 111 0
